8
0 148 45 63 158 38 60 124 
142 0 179 117 36 191 43 89 
107 41 0 65 49 47 6 91 
130 171 151 0 102 194 149 30 
24 85 155 157 0 167 177 132 
109 145 40 27 124 0 139 119 
83 130 142 34 116 40 0 105 
131 178 107 74 187 22 146 0 
